;; translated from ./ctigar/down.c.vmt
;; original benchmark available at: https://es-static.fbk.eu/people/griggio/ic3ia/index.html
;; author: Alberto Griggio <griggio@fbk.eu>
(set-logic HORN)
(declare-fun state (Bool Bool Bool Bool Int Int Int Int) Bool)
(assert (forall ((|.s.0| Bool) (|.s.2| Bool) (|.s.1| Bool) (|.s.0.next| Bool) (|.s.1.next| Bool) (|.s.2.next| Bool) (|.s.3.next| Bool) (|main.i.next| Int) (|main.i| Int) (|main.j.next| Int) (|main.j| Int) (|main.k.next| Int) (|main.k| Int) (|main.n.next| Int) (|main.n| Int) (|.s.3| Bool)) (=> (let ((.def_17 (not .s.3)))
(let ((.def_14 (not .s.2)))
(let ((.def_10 (not .s.1)))
(let ((.def_12 (and .def_10 .s.0)))
(let ((.def_15 (and .def_12 .def_14)))
(let ((.def_18 (and .def_15 .def_17)))
.def_18)))))) (state |.s.1| |.s.0| |.s.2| |.s.3| |main.n| |main.k| |main.j| |main.i|))))
(assert (forall ((|.s.0| Bool) (|.s.2| Bool) (|.s.1| Bool) (|.s.0.next| Bool) (|.s.1.next| Bool) (|.s.2.next| Bool) (|.s.3.next| Bool) (|main.i.next| Int) (|main.i| Int) (|main.j.next| Int) (|main.j| Int) (|main.k.next| Int) (|main.k| Int) (|main.n.next| Int) (|main.n| Int) (|.s.3| Bool)) (=> (and (state |.s.1| |.s.0| |.s.2| |.s.3| |main.n| |main.k| |main.j| |main.i|) (let ((.def_19 (not .s.0)))
(let ((.def_10 (not .s.1)))
(let ((.def_63 (and .def_10 .def_19)))
(let ((.def_14 (not .s.2)))
(let ((.def_114 (and .def_14 .def_63)))
(let ((.def_17 (not .s.3)))
(let ((.def_215 (and .def_17 .def_114)))
(let ((.def_216 (not .def_215)))
(let ((.def_43 (not .s.0.next)))
(let ((.def_41 (not .s.1.next)))
(let ((.def_44 (and .def_41 .def_43)))
(let ((.def_39 (not .s.2.next)))
(let ((.def_45 (and .def_39 .def_44)))
(let ((.def_37 (not .s.3.next)))
(let ((.def_46 (and .def_37 .def_45)))
(let ((.def_35 (= main.i main.i.next)))
(let ((.def_47 (and .def_35 .def_46)))
(let ((.def_32 (= main.j main.j.next)))
(let ((.def_48 (and .def_32 .def_47)))
(let ((.def_29 (= main.k main.k.next)))
(let ((.def_49 (and .def_29 .def_48)))
(let ((.def_26 (= main.n main.n.next)))
(let ((.def_50 (and .def_26 .def_49)))
(let ((.def_217 (or .def_50 .def_216)))
(let ((.def_209 (= main.k.next 0)))
(let ((.def_106 (and .s.1.next .def_43)))
(let ((.def_107 (and .def_39 .def_106)))
(let ((.def_162 (and .def_37 .def_107)))
(let ((.def_210 (and .def_162 .def_209)))
(let ((.def_208 (= main.i.next 0)))
(let ((.def_211 (and .def_208 .def_210)))
(let ((.def_212 (and .def_32 .def_211)))
(let ((.def_213 (and .def_26 .def_212)))
(let ((.def_12 (and .def_10 .s.0)))
(let ((.def_15 (and .def_12 .def_14)))
(let ((.def_18 (and .def_15 .def_17)))
(let ((.def_207 (not .def_18)))
(let ((.def_214 (or .def_207 .def_213)))
(let ((.def_218 (and .def_214 .def_217)))
(let ((.def_67 (and .s.1.next .s.0.next)))
(let ((.def_97 (and .def_39 .def_67)))
(let ((.def_201 (and .def_37 .def_97)))
(let ((.def_202 (and .def_35 .def_201)))
(let ((.def_203 (and .def_32 .def_202)))
(let ((.def_204 (and .def_29 .def_203)))
(let ((.def_205 (and .def_26 .def_204)))
(let ((.def_189 (<= main.n main.i)))
(let ((.def_198 (not .def_189)))
(let ((.def_20 (and .s.1 .def_19)))
(let ((.def_91 (and .def_14 .def_20)))
(let ((.def_188 (and .def_17 .def_91)))
(let ((.def_199 (and .def_188 .def_198)))
(let ((.def_200 (not .def_199)))
(let ((.def_206 (or .def_200 .def_205)))
(let ((.def_219 (and .def_206 .def_218)))
(let ((.def_145 (and .s.2.next .def_106)))
(let ((.def_192 (and .def_37 .def_145)))
(let ((.def_193 (and .def_35 .def_192)))
(let ((.def_194 (and .def_32 .def_193)))
(let ((.def_195 (and .def_29 .def_194)))
(let ((.def_196 (and .def_26 .def_195)))
(let ((.def_190 (and .def_188 .def_189)))
(let ((.def_191 (not .def_190)))
(let ((.def_197 (or .def_191 .def_196)))
(let ((.def_220 (and .def_197 .def_219)))
(let ((.def_84 (and .s.2.next .def_44)))
(let ((.def_182 (and .def_37 .def_84)))
(let ((.def_179 (* (- 1) main.i.next)))
(let ((.def_180 (+ main.i .def_179)))
(let ((.def_181 (= .def_180 (- 1))))
(let ((.def_183 (and .def_181 .def_182)))
(let ((.def_184 (and .def_32 .def_183)))
(let ((.def_185 (and .def_29 .def_184)))
(let ((.def_186 (and .def_26 .def_185)))
(let ((.def_75 (and .s.1 .s.0)))
(let ((.def_76 (and .def_14 .def_75)))
(let ((.def_177 (and .def_17 .def_76)))
(let ((.def_178 (not .def_177)))
(let ((.def_187 (or .def_178 .def_186)))
(let ((.def_221 (and .def_187 .def_220)))
(let ((.def_55 (and .def_41 .s.0.next)))
(let ((.def_56 (and .s.2.next .def_55)))
(let ((.def_171 (and .def_37 .def_56)))
(let ((.def_81 (* (- 1) main.k.next)))
(let ((.def_82 (+ main.k .def_81)))
(let ((.def_170 (= .def_82 (- 1))))
(let ((.def_172 (and .def_170 .def_171)))
(let ((.def_173 (and .def_35 .def_172)))
(let ((.def_174 (and .def_32 .def_173)))
(let ((.def_175 (and .def_26 .def_174)))
(let ((.def_64 (and .s.2 .def_63)))
(let ((.def_168 (and .def_17 .def_64)))
(let ((.def_169 (not .def_168)))
(let ((.def_176 (or .def_169 .def_175)))
(let ((.def_222 (and .def_176 .def_221)))
(let ((.def_163 (and .def_35 .def_162)))
(let ((.def_164 (and .def_32 .def_163)))
(let ((.def_165 (and .def_29 .def_164)))
(let ((.def_166 (and .def_26 .def_165)))
(let ((.def_52 (and .def_12 .s.2)))
(let ((.def_160 (and .def_17 .def_52)))
(let ((.def_161 (not .def_160)))
(let ((.def_167 (or .def_161 .def_166)))
(let ((.def_223 (and .def_167 .def_222)))
(let ((.def_154 (= main.n main.j.next)))
(let ((.def_68 (and .s.2.next .def_67)))
(let ((.def_69 (and .def_37 .def_68)))
(let ((.def_155 (and .def_69 .def_154)))
(let ((.def_156 (and .def_35 .def_155)))
(let ((.def_157 (and .def_29 .def_156)))
(let ((.def_158 (and .def_26 .def_157)))
(let ((.def_21 (and .s.2 .def_20)))
(let ((.def_152 (and .def_17 .def_21)))
(let ((.def_153 (not .def_152)))
(let ((.def_159 (or .def_153 .def_158)))
(let ((.def_224 (and .def_159 .def_223)))
(let ((.def_146 (and .s.3.next .def_145)))
(let ((.def_147 (and .def_35 .def_146)))
(let ((.def_148 (and .def_32 .def_147)))
(let ((.def_149 (and .def_29 .def_148)))
(let ((.def_150 (and .def_26 .def_149)))
(let ((.def_133 (<= main.j 0)))
(let ((.def_131 (and .s.2 .def_75)))
(let ((.def_132 (and .def_17 .def_131)))
(let ((.def_143 (and .def_132 .def_133)))
(let ((.def_144 (not .def_143)))
(let ((.def_151 (or .def_144 .def_150)))
(let ((.def_225 (and .def_151 .def_224)))
(let ((.def_137 (and .s.3.next .def_45)))
(let ((.def_138 (and .def_35 .def_137)))
(let ((.def_139 (and .def_32 .def_138)))
(let ((.def_140 (and .def_29 .def_139)))
(let ((.def_141 (and .def_26 .def_140)))
(let ((.def_134 (not .def_133)))
(let ((.def_135 (and .def_132 .def_134)))
(let ((.def_136 (not .def_135)))
(let ((.def_142 (or .def_136 .def_141)))
(let ((.def_226 (and .def_142 .def_225)))
(let ((.def_117 (<= main.k 0)))
(let ((.def_115 (and .s.3 .def_114)))
(let ((.def_128 (and .def_115 .def_117)))
(let ((.def_129 (not .def_128)))
(let ((.def_57 (and .s.3.next .def_56)))
(let ((.def_58 (and .def_35 .def_57)))
(let ((.def_59 (and .def_32 .def_58)))
(let ((.def_60 (and .def_29 .def_59)))
(let ((.def_61 (and .def_26 .def_60)))
(let ((.def_130 (or .def_61 .def_129)))
(let ((.def_227 (and .def_130 .def_226)))
(let ((.def_121 (and .def_39 .def_55)))
(let ((.def_122 (and .s.3.next .def_121)))
(let ((.def_123 (and .def_35 .def_122)))
(let ((.def_124 (and .def_32 .def_123)))
(let ((.def_125 (and .def_29 .def_124)))
(let ((.def_126 (and .def_26 .def_125)))
(let ((.def_118 (not .def_117)))
(let ((.def_119 (and .def_115 .def_118)))
(let ((.def_120 (not .def_119)))
(let ((.def_127 (or .def_120 .def_126)))
(let ((.def_228 (and .def_127 .def_227)))
(let ((.def_108 (and .s.3.next .def_107)))
(let ((.def_109 (and .def_35 .def_108)))
(let ((.def_110 (and .def_32 .def_109)))
(let ((.def_111 (and .def_29 .def_110)))
(let ((.def_112 (and .def_26 .def_111)))
(let ((.def_104 (and .def_15 .s.3)))
(let ((.def_105 (not .def_104)))
(let ((.def_113 (or .def_105 .def_112)))
(let ((.def_229 (and .def_113 .def_228)))
(let ((.def_98 (and .s.3.next .def_97)))
(let ((.def_94 (* (- 1) main.j.next)))
(let ((.def_95 (+ main.j .def_94)))
(let ((.def_96 (= .def_95 1)))
(let ((.def_99 (and .def_96 .def_98)))
(let ((.def_100 (and .def_35 .def_99)))
(let ((.def_101 (and .def_29 .def_100)))
(let ((.def_102 (and .def_26 .def_101)))
(let ((.def_92 (and .s.3 .def_91)))
(let ((.def_93 (not .def_92)))
(let ((.def_103 (or .def_93 .def_102)))
(let ((.def_230 (and .def_103 .def_229)))
(let ((.def_85 (and .s.3.next .def_84)))
(let ((.def_83 (= .def_82 1)))
(let ((.def_86 (and .def_83 .def_85)))
(let ((.def_87 (and .def_35 .def_86)))
(let ((.def_88 (and .def_32 .def_87)))
(let ((.def_89 (and .def_26 .def_88)))
(let ((.def_77 (and .s.3 .def_76)))
(let ((.def_78 (not .def_77)))
(let ((.def_90 (or .def_78 .def_89)))
(let ((.def_231 (and .def_90 .def_230)))
(let ((.def_70 (and .def_35 .def_69)))
(let ((.def_71 (and .def_32 .def_70)))
(let ((.def_72 (and .def_29 .def_71)))
(let ((.def_73 (and .def_26 .def_72)))
(let ((.def_65 (and .s.3 .def_64)))
(let ((.def_66 (not .def_65)))
(let ((.def_74 (or .def_66 .def_73)))
(let ((.def_232 (and .def_74 .def_231)))
(let ((.def_53 (and .s.3 .def_52)))
(let ((.def_54 (not .def_53)))
(let ((.def_62 (or .def_54 .def_61)))
(let ((.def_233 (and .def_62 .def_232)))
(let ((.def_22 (and .s.3 .def_21)))
(let ((.def_23 (not .def_22)))
(let ((.def_51 (or .def_23 .def_50)))
(let ((.def_234 (and .def_51 .def_233)))
.def_234)))))))))))))))))))))))))))))))))))))))))))))))))))))))))))))))))))))))))))))))))))))))))))))))))))))))))))))))))))))))))))))))))))))))))))))))))))))))))))))))))))))))))))))))))))))))))))))))))))))))))))))))) (state |.s.1.next| |.s.0.next| |.s.2.next| |.s.3.next| |main.n.next| |main.k.next| |main.j.next| |main.i.next|))))
(assert (forall ((|.s.0| Bool) (|.s.2| Bool) (|.s.1| Bool) (|.s.0.next| Bool) (|.s.1.next| Bool) (|.s.2.next| Bool) (|.s.3.next| Bool) (|main.i.next| Int) (|main.i| Int) (|main.j.next| Int) (|main.j| Int) (|main.k.next| Int) (|main.k| Int) (|main.n.next| Int) (|main.n| Int) (|.s.3| Bool)) (=> (state |.s.1| |.s.0| |.s.2| |.s.3| |main.n| |main.k| |main.j| |main.i|) (let ((.def_10 (not .s.1)))
(let ((.def_12 (and .def_10 .s.0)))
(let ((.def_52 (and .def_12 .s.2)))
(let ((.def_53 (and .s.3 .def_52)))
(let ((.def_54 (not .def_53)))
.def_54))))))))
(check-sat)
